
Presolve eliminates 6416 constraints and 4832 variables.
Adjusted problem:
77568 variables:
	76768 binary variables
	800 linear variables
77702 constraints, all linear; 655848 nonzeros
	1702 equality constraints
	76000 inequality constraints
1 linear objective; 75968 nonzeros.

Gurobi 9.1.2: mipgap 0.01
outlev 1
timelim 3600
Gurobi Optimizer version 9.1.2 build v9.1.2rc0 (linux64)
Thread count: 4 physical cores, 4 logical processors, using up to 4 threads
Optimize a model with 77702 rows, 77568 columns and 655848 nonzeros
Model fingerprint: 0xa162a586
Variable types: 800 continuous, 76768 integer (76768 binary)
Coefficient statistics:
  Matrix range     [3e-02, 2e+02]
  Objective range  [4e+01, 2e+04]
  Bounds range     [1e+00, 2e+02]
  RHS range        [1e+00, 2e+02]
Presolve removed 1600 rows and 0 columns
Presolve time: 2.40s
Presolved: 76102 rows, 77568 columns, 431120 nonzeros
Variable types: 800 continuous, 76768 integer (76768 binary)

Deterministic concurrent LP optimizer: primal and dual simplex
Showing first log only...


Root simplex log...

Iteration    Objective       Primal Inf.    Dual Inf.      Time
    2281    1.0578996e+04   1.918481e+02   3.915607e+09      5s
   18871    5.2808371e+03   0.000000e+00   1.218553e+05     10s
Concurrent spin time: 0.01s

Solved with dual simplex

Root relaxation: objective 4.564000e+03, 13458 iterations, 8.15 seconds

    Nodes    |    Current Node    |     Objective Bounds      |     Work
 Expl Unexpl |  Obj  Depth IntInf | Incumbent    BestBd   Gap | It/Node Time

     0     0 4564.00000    0  339          - 4564.00000      -     -   13s
     0     0 4564.00000    0  345          - 4564.00000      -     -   29s
     0     0 4564.08000    0  397          - 4564.08000      -     -   33s
     0     0 4565.00000    0  428          - 4565.00000      -     -   35s
     0     0 4565.00000    0  398          - 4565.00000      -     -   36s
     0     0 4565.00000    0  331          - 4565.00000      -     -   42s
     0     0 4565.00000    0  389          - 4565.00000      -     -   43s
     0     0 4565.00000    0  398          - 4565.00000      -     -   47s
     0     0 4565.00000    0  408          - 4565.00000      -     -   48s
     0     0 4565.00000    0  333          - 4565.00000      -     -   53s
     0     0 4565.00000    0  386          - 4565.00000      -     -   54s
     0     0 4565.00000    0  314          - 4565.00000      -     -   59s
H    0     0                    29017.000000 4565.00000  84.3%     -   59s
     0     0 4565.00000    0  314 29017.0000 4565.00000  84.3%     -   83s
     0     2 4565.00000    0  313 29017.0000 4565.00000  84.3%     -  169s
     1     4 4565.00000    1  311 29017.0000 4565.00000  84.3%   829  172s
     3     8 4565.00000    2  359 29017.0000 4565.00000  84.3%   422  212s
     7    12 4565.23500    3  387 29017.0000 4565.00000  84.3%   536  261s
    11    16 4565.61750    4  392 29017.0000 4565.00000  84.3%   588  268s
    15    20 4565.61750    4  396 29017.0000 4565.00000  84.3%   503  275s
    19    24 4565.61750    5  393 29017.0000 4565.00000  84.3%   439  280s
    23    29 4565.61750    5  387 29017.0000 4565.00000  84.3%   387  286s
    28    33 4565.61750    6  387 29017.0000 4565.00000  84.3%   323  370s
    32    75 4565.61750    6  376 29017.0000 4565.00000  84.3%   302  394s
    74    79 4565.79750   13  387 29017.0000 4565.00000  84.3%   177  483s
H   77    79                    10295.000000 4565.00000  55.7%   177  483s
    78   185 4565.79750   13  380 10295.0000 4565.00000  55.7%   176  621s
   184   295 4567.79750   23  372 10295.0000 4565.00000  55.7%   137  677s
   294   410 4568.58000   42  379 10295.0000 4565.00000  55.7%   131  730s
   409   517 4570.49625   57  395 10295.0000 4565.00000  55.7%   124  838s
   516   605 4573.35730   66  368 10295.0000 4565.00000  55.7%   121  884s
H  559   605                    5092.0000000 4565.00000  10.3%   119  884s
   604   747 4584.90389   71  370 5092.00000 4565.00000  10.3%   117  940s
   746   912 4585.22319   92  363 5092.00000 4565.00000  10.3%   107  991s
   914   913 4568.58000   37  314 5092.00000 4565.00000  10.3%  96.4 1050s
H  915   868                    5091.0000000 4565.00000  10.3%  96.3 1122s
H  916   824                    5082.0000000 4565.00000  10.2%  96.2 1194s
H  917   784                    5043.0000000 4565.00000  9.48%  96.1 1195s
   918   785 4568.58000   44  345 5043.00000 4565.00000  9.48%  96.0 1202s
   919   785 4567.20089   17  316 5043.00000 4565.00000  9.48%  95.9 1211s
   920   786 4565.89750   28  360 5043.00000 4565.00000  9.48%  95.8 1219s
   921   787 4572.80829   95  337 5043.00000 4565.00000  9.48%  95.7 1230s
   922   787 4570.85833   99  371 5043.00000 4565.00000  9.48%  95.6 1240s
   923   788 4585.40885   92  321 5043.00000 4565.00000  9.48%  95.5 1261s
   925   789 4602.18569  134  412 5043.00000 4566.77750  9.44%  95.3 1267s
   927   791 4612.88458   96  362 5043.00000 4567.52750  9.43%  95.1 1279s
   928   791 4570.89500   23  359 5043.00000 4570.89500  9.36%  95.0 1296s
   930   793 4575.06222   86  416 5043.00000 4575.06222  9.28%  94.8 1322s
H  930   753                    5038.0000000 4584.17000  9.01%  94.8 1362s
H  931   715                    4995.0000000 4584.17000  8.22%  94.7 1364s
   932   716 4586.16667   11  424 4995.00000 4586.16667  8.18%  94.6 1365s
   934   717 4590.58991   53  451 4995.00000 4590.58991  8.10%  94.3 1372s
   935   718 4590.58991   82  419 4995.00000 4590.58991  8.10%  94.2 1378s
   936   719 4593.89287   60  315 4995.00000 4593.89287  8.03%  94.1 1393s
   938   720 4595.00000   33  436 4995.00000 4595.00000  8.01%  93.9 1398s
   939   721 4596.00246   36  303 4995.00000 4596.00246  7.99%  93.8 1404s
   940   721 4596.22605   77  428 4995.00000 4596.22605  7.98%  93.7 1408s
   941   722 4615.58482  182  506 4995.00000 4596.31765  7.98%  93.6 1410s
   944   724 4596.43964   86  473 4995.00000 4596.43964  7.98%  93.3 1418s
   945   725 4596.43964  184  516 4995.00000 4596.43964  7.98%  93.3 1429s
   946   725 4597.98681   64  341 4995.00000 4597.98681  7.95%  93.2 1467s
   947   726 4598.74707  128  455 4995.00000 4598.74707  7.93%  93.1 1472s
   948   727 4598.92857  111  498 4995.00000 4598.92857  7.93%  93.0 1477s
   949   727 4599.00000   26  492 4995.00000 4599.00000  7.93%  92.9 1480s
   950   728 4601.65614  129  446 4995.00000 4599.00000  7.93%  92.8 1491s
   951   729 4601.00000   78  264 4995.00000 4601.00000  7.89%  92.7 1531s
   952   729 4601.00000   20  434 4995.00000 4601.00000  7.89%  92.6 1542s
   953   730 4601.00000  131  288 4995.00000 4601.00000  7.89%  92.5 1593s
   954   731 4601.00000  116  409 4995.00000 4601.00000  7.89%  92.4 1604s
   955   731 4601.00000    9  236 4995.00000 4601.00000  7.89%  92.3 1634s
   956   732 4601.00000   82  381 4995.00000 4601.00000  7.89%  92.2 1644s
H  956   695                    4978.0000000 4601.00000  7.57%  92.2 1672s
   958   696 4601.02375   21  480 4978.00000 4601.02375  7.57%  92.0 1681s
   959   697 4601.02375   18  494 4978.00000 4601.02375  7.57%  91.9 1692s
   960   698 4601.50000  210  251 4978.00000 4601.50000  7.56%  91.8 1717s
   961   698 4601.50000   30  414 4978.00000 4601.50000  7.56%  91.7 1732s
H  961   662                    4942.0000000 4601.50000  6.89%  91.7 1833s
H  962   629                    4896.0000000 4601.50000  6.02%  91.6 1838s
   963   630 4601.50000  121  466 4896.00000 4601.50000  6.02%  91.5 1857s
   964   630 4601.50000   63  320 4896.00000 4601.50000  6.02%  91.4 1908s
   965   631 4601.50000  102  440 4896.00000 4601.50000  6.02%  91.3 1966s
   966   632 4601.50000  153  324 4896.00000 4601.50000  6.02%  91.2 1989s
H  966   600                    4895.0000000 4601.50000  6.00%  91.2 1994s
   967   600 4601.74654  124  383 4895.00000 4601.50000  6.00%  91.1 2003s
H  967   569                    4883.0000000 4601.53934  5.76%  91.1 2061s
   969   571 4601.53934   48  450 4883.00000 4601.53934  5.76%  90.9 2085s
   970   571 4601.64541   41  331 4883.00000 4601.64541  5.76%  90.8 2109s
   971   572 4601.84786   34  493 4883.00000 4601.84786  5.76%  90.8 2118s
   972   573 4601.84786   48  544 4883.00000 4601.84786  5.76%  90.7 2129s
   973   573 4602.07034  101  331 4883.00000 4602.07034  5.75%  90.6 2144s
   974   574 4602.07034   16  428 4883.00000 4602.07034  5.75%  90.5 2150s
   975   575 4602.07034   13  288 4883.00000 4602.07034  5.75%  90.4 2171s
   976   575 4602.07034  130  522 4883.00000 4602.07034  5.75%  90.3 2182s
   977   576 4615.40337  114  314 4883.00000 4602.09972  5.75%  90.2 2205s
   978   577 4602.09972   91  500 4883.00000 4602.09972  5.75%  90.1 2216s
   979   577 4602.09972   22  379 4883.00000 4602.09972  5.75%  90.0 2252s
   980   578 4602.09972  119  565 4883.00000 4602.09972  5.75%  89.9 2282s
   981   579 4602.13232   89  341 4883.00000 4602.13232  5.75%  89.8 2302s
   982   579 4602.15393  132  466 4883.00000 4602.15393  5.75%  89.7 2308s
   983   580 4602.16477   10  449 4883.00000 4602.16477  5.75%  89.6 2313s
   984   581 4602.16477   95  459 4883.00000 4602.16477  5.75%  89.6 2327s
   985   581 4602.17377  149  338 4883.00000 4602.17377  5.75%  89.5 2347s
   986   582 4602.17377   59  567 4883.00000 4602.17377  5.75%  89.4 2363s
   987   583 4602.17377   56  374 4883.00000 4602.17377  5.75%  89.3 2392s
   988   583 4602.17574   78  600 4883.00000 4602.17574  5.75%  89.2 2401s
   989   584 4602.17935  130  705 4883.00000 4602.17935  5.75%  89.1 2415s
   990   585 4602.17962  202  643 4883.00000 4602.17962  5.75%  89.0 2435s
   991   585 4602.17962   99  350 4883.00000 4602.17962  5.75%  88.9 2488s
   992   586 4602.17962  154  435 4883.00000 4602.17962  5.75%  88.8 2524s
   993   587 4602.36027   12  438 4883.00000 4602.36027  5.75%  88.7 2559s
   994   587 4602.36168   68  565 4883.00000 4602.36168  5.75%  88.7 2571s
   995   588 4602.55868  122  594 4883.00000 4602.55868  5.74%  88.6 2579s
   996   589 4602.61187   69  653 4883.00000 4602.61187  5.74%  88.5 2587s
   997   589 4602.64327   27  604 4883.00000 4602.64327  5.74%  88.4 2593s
   998   590 4602.64327   52  800 4883.00000 4602.64327  5.74%  88.3 2621s
   999   591 4602.65877   32  488 4883.00000 4602.65877  5.74%  88.2 2664s
  1000   591 4602.65877   87  581 4883.00000 4602.65877  5.74%  88.1 2680s
  1001   592 4602.66278  112  537 4883.00000 4602.66278  5.74%  88.0 2710s
  1002   593 4602.67852   83  699 4883.00000 4602.67852  5.74%  87.9 2719s
  1003   593 4602.71971  168  730 4883.00000 4602.71971  5.74%  87.9 2730s
  1004   594 4602.72043   48  698 4883.00000 4602.72043  5.74%  87.8 2740s
  1005   595 4602.72043   69  687 4883.00000 4602.72043  5.74%  87.7 2756s
  1006   595 4602.73209   17  575 4883.00000 4602.73209  5.74%  87.6 2800s
  1007   596 4602.73854  119  586 4883.00000 4602.73854  5.74%  87.5 2805s
  1008   597 4602.73878  130  643 4883.00000 4602.73878  5.74%  87.4 2815s
  1009   597 4602.74670  105  457 4883.00000 4602.74670  5.74%  87.3 2856s
  1010   598 4602.75069   28  540 4883.00000 4602.75069  5.74%  87.2 2870s
  1011   599 4602.75069   59  526 4883.00000 4602.75069  5.74%  87.2 2883s
  1012   599 4602.76613   36  547 4883.00000 4602.76613  5.74%  87.1 2909s
  1013   600 4612.61983  134  705 4883.00000 4602.76789  5.74%  87.0 2918s
  1014   601 4602.76789   37  658 4883.00000 4602.76789  5.74%  86.9 2936s
  1015   601 4602.77126  115  661 4883.00000 4602.77126  5.74%  86.8 3011s
  1016   602 4602.77257  120  549 4883.00000 4602.77257  5.74%  86.7 3060s
  1017   603 4602.77280  199  707 4883.00000 4602.77280  5.74%  86.6 3074s
  1018   603 4602.77403   44  544 4883.00000 4602.77403  5.74%  86.6 3100s
  1019   604 4602.77621   17  684 4883.00000 4602.77621  5.74%  86.5 3109s
  1020   605 4602.77973   28  714 4883.00000 4602.77973  5.74%  86.4 3112s
  1021   605 4602.78525   95  837 4883.00000 4602.78525  5.74%  86.3 3120s
  1022   606 4602.78661   99  748 4883.00000 4602.78661  5.74%  86.2 3125s
  1023   607 4602.78671   92  770 4883.00000 4602.78671  5.74%  86.1 3136s
H 1023   575                    4877.0000000 4602.78994  5.62%  86.1 3179s
  1025   576 4602.81134  134  801 4877.00000 4602.81134  5.62%  86.0 3201s
  1026   577 4602.81361   30  675 4877.00000 4602.81361  5.62%  85.9 3212s
  1027   577 4612.88458   96  785 4877.00000 4602.81774  5.62%  85.8 3218s
  1028   578 4602.81962   23  685 4877.00000 4602.81962  5.62%  85.7 3221s
  1029   579 4602.82105  111  830 4877.00000 4602.82105  5.62%  85.6 3235s
  1030   579 4602.82105   86  801 4877.00000 4602.82105  5.62%  85.6 3257s
  1031   580 4602.84587  157  668 4877.00000 4602.84587  5.62%  85.5 3308s
  1032   581 4602.85092   11  793 4877.00000 4602.85092  5.62%  85.4 3314s
  1033   581 4602.86086   80  737 4877.00000 4602.86086  5.62%  85.3 3319s
  1034   582 4602.86634   53  714 4877.00000 4602.86634  5.62%  85.2 3324s
  1035   583 4602.86731   82  874 4877.00000 4602.86731  5.62%  85.1 3339s
  1036   583 4602.86987   60  733 4877.00000 4602.86987  5.62%  85.1 3343s
  1037   584 4602.86987  216  656 4877.00000 4602.86987  5.62%  85.0 3354s
  1038   585 4602.87476   33  747 4877.00000 4602.87476  5.62%  84.9 3387s
  1039   585 4602.87561   36  759 4877.00000 4602.87561  5.62%  84.8 3393s
  1040   586 4602.87923   77  855 4877.00000 4602.87923  5.62%  84.7 3397s
  1041   587 4615.58482  182  810 4877.00000 4602.87947  5.62%  84.7 3412s
  1042   587 4602.89999   45  667 4877.00000 4602.89999  5.62%  84.6 3433s
  1043   588 4602.90006  115  786 4877.00000 4602.90006  5.62%  84.5 3445s
  1044   589 4602.90550   86  621 4877.00000 4602.90550  5.62%  84.4 3461s
  1045   589 4602.90550  184  670 4877.00000 4602.90550  5.62%  84.3 3480s
  1046   590 4602.91217   64  537 4877.00000 4602.91217  5.62%  84.2 3521s
  1048   591 4602.92141  111  746 4877.00000 4602.92141  5.62%  84.1 3533s
  1049   592 4602.92235   26  705 4877.00000 4602.92235  5.62%  84.0 3555s
  1051   593 4602.92327   78  820 4877.00000 4602.92327  5.62%  83.8 3586s

Cutting planes:
  Gomory: 252
  Implied bound: 163
  Projected implied bound: 9
  Clique: 1
  MIR: 137
  Flow cover: 468
  Zero half: 341
  RLT: 8
  Relax-and-lift: 218

Explored 1051 nodes (366210 simplex iterations) in 3656.02 seconds
Thread count was 4 (of 4 available processors)

Solution count 10: 4877 4883 4895 ... 5082

Time limit reached
Best objective 4.877000000000e+03, best bound 4.603000000000e+03, gap 5.6182%
Gurobi 9.1.2: time limit with a feasible solution; objective 4877
366210 simplex iterations
1051 branch-and-cut nodes
No basis.
No dual variables returned.
sum{(i,j) in Arcs, k in K: i != j} c[i,j]*x[i,j,k] + sum{(i,j) in Arcs, 
  k in K} cto[i,j]*x[i,j,k] = 4877

sum{(i,j) in Arcs, k in K: i != j} c[i,j]*x[i,j,k] = 506

sum{(i,j) in Arcs, k in K: i != j} cto[i,j]*x[i,j,k] = 4371

COST = 4877

x  1 69 costo: 1.00, cto: 38.00, dano: 0.000000
x 17 98 costo: 6.00, cto: 41.00, dano: 0.270000
x 19 49 costo: 4.00, cto: 40.00, dano: 0.000000
x 37 50 costo: 11.00, cto: 48.00, dano: 0.000000
x 42 43 costo: 3.00, cto: 43.00, dano: 0.000000
x 43 90 costo: 20.00, cto: 49.00, dano: 0.000000
x 49 84 costo: 10.00, cto: 44.00, dano: 0.000000
x 50 65 costo: 15.00, cto: 44.00, dano: 1.290000
x 62 19 costo: 3.00, cto: 39.00, dano: 0.000000
x 65 66 costo: 5.00, cto: 40.00, dano: 0.220000
x 66  1 costo: 11.00, cto: 42.00, dano: 0.980000
x 69  0 costo: 4.00, cto: 40.00, dano: 0.200000
x 84 17 costo: 3.00, cto: 39.00, dano: 0.100000
x 90 62 costo: 3.00, cto: 40.00, dano: 0.000000
x 91 100 costo: 3.00, cto: 38.00, dano: 0.180000
x 98 37 costo: 0.00, cto: 38.00, dano: 0.000000
x 100 42 costo: 9.00, cto: 39.00, dano: 0.490000
x  0 91 costo: 14.00, cto: 42.00, dano: 0.980000
x  8 45 costo: 5.00, cto: 39.00, dano: 0.230000
x 10 11 costo: 3.00, cto: 40.00, dano: 0.000000
x 11 63 costo: 3.00, cto: 39.00, dano: 0.130000
x 27 10 costo: 7.00, cto: 41.00, dano: 0.330000
x 45 83 costo: 2.00, cto: 39.00, dano: 0.000000
x 47 48 costo: 2.00, cto: 39.00, dano: 0.000000
x 48 82 costo: 1.00, cto: 39.00, dano: 0.000000
x 60  0 costo: 4.00, cto: 41.00, dano: 0.000000
x 63 64 costo: 4.00, cto: 44.00, dano: 0.000000
x 64 47 costo: 7.00, cto: 42.00, dano: 0.000000
x 82  8 costo: 1.00, cto: 43.00, dano: 0.000000
x 83 60 costo: 1.00, cto: 38.00, dano: 0.000000
x  0 27 costo: 4.00, cto: 39.00, dano: 0.200000
x 12 68 costo: 3.00, cto: 39.00, dano: 0.120000
x 13 58 costo: 1.00, cto: 39.00, dano: 0.000000
x 24 25 costo: 6.00, cto: 40.00, dano: 0.250000
x 25 55 costo: 4.00, cto: 38.00, dano: 0.280000
x 26  0 costo: 4.00, cto: 40.00, dano: 0.180000
x 29 24 costo: 3.00, cto: 39.00, dano: 0.270000
x 40 12 costo: 3.00, cto: 40.00, dano: 0.000000
x 55 26 costo: 9.00, cto: 41.00, dano: 0.740000
x 58 40 costo: 2.00, cto: 38.00, dano: 0.070000
x 68 29 costo: 12.00, cto: 39.00, dano: 0.750000
x 87 13 costo: 2.00, cto: 39.00, dano: 0.000000
x 97 87 costo: 1.00, cto: 38.00, dano: 0.000000
x  0 97 costo: 5.00, cto: 41.00, dano: 0.000000
x  5 46 costo: 5.00, cto: 42.00, dano: 0.000000
x  6  0 costo: 2.00, cto: 44.00, dano: 0.000000
x  9 28 costo: 12.00, cto: 42.00, dano: 1.020000
x 14  5 costo: 7.00, cto: 41.00, dano: 0.330000
x 15 38 costo: 7.00, cto: 46.00, dano: 0.000000
x 20 51 costo: 3.00, cto: 39.00, dano: 0.130000
x 22 15 costo: 4.00, cto: 40.00, dano: 0.000000
x 28 41 costo: 7.00, cto: 43.00, dano: 0.000000
x 30 20 costo: 3.00, cto: 39.00, dano: 0.120000
x 36 88 costo: 8.00, cto: 42.00, dano: 0.000000
x 38 14 costo: 3.00, cto: 40.00, dano: 0.000000
x 41 57 costo: 3.00, cto: 40.00, dano: 0.000000
x 46 36 costo: 3.00, cto: 40.00, dano: 0.000000
x 51  9 costo: 4.00, cto: 39.00, dano: 0.370000
x 57  6 costo: 8.00, cto: 41.00, dano: 0.320000
x 74 22 costo: 1.00, cto: 38.00, dano: 0.000000
x 88 30 costo: 5.00, cto: 41.00, dano: 0.000000
x  0 74 costo: 6.00, cto: 42.00, dano: 0.000000
x 59  0 costo: 5.00, cto: 41.00, dano: 0.000000
x 85 93 costo: 1.00, cto: 38.00, dano: 0.030000
x 89 94 costo: 4.00, cto: 39.00, dano: 0.130000
x 92 95 costo: 1.00, cto: 38.00, dano: 0.050000
x 93 92 costo: 1.00, cto: 38.00, dano: 0.000000
x 94 96 costo: 2.00, cto: 38.00, dano: 0.070000
x 95 99 costo: 1.00, cto: 39.00, dano: 0.000000
x 96 85 costo: 2.00, cto: 39.00, dano: 0.000000
x 99 59 costo: 0.00, cto: 38.00, dano: 0.000000
x  0 89 costo: 2.00, cto: 39.00, dano: 0.000000
x 16 44 costo: 2.00, cto: 39.00, dano: 0.000000
x 18 71 costo: 13.00, cto: 46.00, dano: 0.000000
x 21 72 costo: 1.00, cto: 38.00, dano: 0.000000
x 35 80 costo: 11.00, cto: 43.00, dano: 0.470000
x 44 86 costo: 2.00, cto: 39.00, dano: 0.000000
x 52 18 costo: 2.00, cto: 39.00, dano: 0.000000
x 61 16 costo: 1.00, cto: 38.00, dano: 0.070000
x 71 35 costo: 2.00, cto: 39.00, dano: 0.100000
x 72 61 costo: 11.00, cto: 44.00, dano: 0.000000
x 80 21 costo: 5.00, cto: 41.00, dano: 0.000000
x 86  0 costo: 11.00, cto: 44.00, dano: 0.000000
x  0 52 costo: 3.00, cto: 40.00, dano: 0.000000
x  2  0 costo: 4.00, cto: 45.00, dano: 0.000000
x  3 53 costo: 10.00, cto: 42.00, dano: 0.860000
x  7 31 costo: 3.00, cto: 44.00, dano: 0.000000
x 31 70 costo: 4.00, cto: 39.00, dano: 0.270000
x 32 81 costo: 11.00, cto: 42.00, dano: 0.980000
x 33 34 costo: 5.00, cto: 40.00, dano: 0.200000
x 34 78 costo: 2.00, cto: 39.00, dano: 0.200000
x 53  2 costo: 4.00, cto: 40.00, dano: 0.000000
x 70 32 costo: 5.00, cto: 40.00, dano: 0.220000
x 76  3 costo: 4.00, cto: 39.00, dano: 0.370000
x 77 76 costo: 1.00, cto: 42.00, dano: 0.000000
x 78 79 costo: 2.00, cto: 39.00, dano: 0.200000
x 79 77 costo: 4.00, cto: 39.00, dano: 0.370000
x 81 33 costo: 1.00, cto: 38.00, dano: 0.080000
x  0  7 costo: 6.00, cto: 45.00, dano: 0.000000
x  4 56 costo: 3.00, cto: 43.00, dano: 0.000000
x 23 75 costo: 6.00, cto: 39.00, dano: 0.490000
x 39 67 costo: 4.00, cto: 39.00, dano: 0.150000
x 54  4 costo: 4.00, cto: 39.00, dano: 0.150000
x 56 39 costo: 3.00, cto: 39.00, dano: 0.270000
x 67 23 costo: 5.00, cto: 40.00, dano: 0.470000
x 73 54 costo: 4.00, cto: 41.00, dano: 0.000000
x 75  0 costo: 7.00, cto: 43.00, dano: 0.000000
x  0 73 costo: 6.00, cto: 41.00, dano: 0.000000
